308
42
1
23
12
30
16
4
28
8
6
4
17
23
17
26
15
8
1
28
18
19
12
11
11
16
14
6
30
3
14
6
30
21
14
6
25
1
20
8
16
30
24
20
16
8
6
16
8
25
14
8
10
25
26
3
4
14
14
1
30
24
24
11
9
20
2
5
10
2
17
30
22
17
6
12
23
25
3
5
12
16
4
11
8
28
